;; ===================== PROJECTED CANON (QE) =====================
;; Each clause below is entailed by Proj = ∃W.F over the canonical vocabulary.
;; Units appear first for clarity; OR-clauses (SAT-filtered) follow.
;; ==================================================================

;; Unit Bool constraints (entailed)
(assert (not patient_has_finding_of_cerebrovascular_accident_inthepast6months))
(assert (not patient_has_finding_of_hypertensive_encephalopathy_inthepast6months))
(assert (not patient_has_finding_of_transient_cerebral_ischemia_inthepast6months))
(assert (not patient_has_undergone_coronary_artery_bypass_graft_inthepast6months))
(assert (not patient_has_diagnosis_of_myocardial_infarction_inthepast6months))
(assert (not patient_has_diagnosis_of_preinfarction_syndrome_inthepast6months))
(assert (not patient_has_diagnosis_of_type_1_diabetes_mellitus_now))
